c A SAT instance generated from a 3-CNF formula that had 22 clauses and 11 variables
p cnf 11 22
-10 -5 -4 0
-2 -8 -10 0
-3 -6 -4 0
11 1 -3 0
11 8 -6 0
10 11 5 0
-4 -8 -1 0
-10 -11 -8 0
-3 -10 1 0
1 -11 6 0
-7 1 -4 0
10 9 8 0
10 -9 11 0
11 8 5 0
4 11 8 0
-1 9 -8 0
10 -5 -3 0
-5 1 10 0
5 3 2 0
5 10 -9 0
10 7 -9 0
8 9 1 0
